[[1,2,3,3,4,4,5,5,5,7,7,31,92,95,99],[5,6,12,17,19,21,33,51,65,70,72,80,83,85,88,94,99],[11,13,17,20,22,26,36,40,48,54,76,82,84,87,90,95,99],[11,14,19,20,27,37,38,41,44,49,61,83,84,87,91,96,98],[12,15,19,21,26,28,38,42,46,50,63,83,84,87,94,96,96],[24,26,37,37,38,38,42,42,47,67,67,70,70,71,71,76,77]]